(set-info :smt-lib-version 2.6)
(set-logic UF)
(set-info :source |Benchmarks from the paper: "Extending Sledgehammer with SMT Solvers" by Jasmin Blanchette, Sascha Bohme, and Lawrence C. Paulson, CADE 2011.  Translated to SMT2 by Andrew Reynolds and Morgan Deters.|)
(set-info :category "industrial")
(set-info :status unknown)
(declare-sort S1 0)
(declare-sort S2 0)
(declare-sort S3 0)
(declare-sort S4 0)
(declare-sort S5 0)
(declare-sort S6 0)
(declare-sort S7 0)
(declare-sort S8 0)
(declare-sort S9 0)
(declare-sort S10 0)
(declare-sort S11 0)
(declare-sort S12 0)
(declare-sort S13 0)
(declare-sort S14 0)
(declare-sort S15 0)
(declare-sort S16 0)
(declare-sort S17 0)
(declare-sort S18 0)
(declare-sort S19 0)
(declare-sort S20 0)
(declare-sort S21 0)
(declare-sort S22 0)
(declare-sort S23 0)
(declare-sort S24 0)
(declare-sort S25 0)
(declare-sort S26 0)
(declare-sort S27 0)
(declare-sort S28 0)
(declare-sort S29 0)
(declare-sort S30 0)
(declare-sort S31 0)
(declare-sort S32 0)
(declare-sort S33 0)
(declare-sort S34 0)
(declare-sort S35 0)
(declare-sort S36 0)
(declare-sort S37 0)
(declare-sort S38 0)
(declare-sort S39 0)
(declare-sort S40 0)
(declare-sort S41 0)
(declare-sort S42 0)
(declare-sort S43 0)
(declare-sort S44 0)
(declare-sort S45 0)
(declare-sort S46 0)
(declare-sort S47 0)
(declare-sort S48 0)
(declare-sort S49 0)
(declare-sort S50 0)
(declare-sort S51 0)
(declare-sort S52 0)
(declare-sort S53 0)
(declare-sort S54 0)
(declare-sort S55 0)
(declare-sort S56 0)
(declare-sort S57 0)
(declare-sort S58 0)
(declare-sort S59 0)
(declare-sort S60 0)
(declare-sort S61 0)
(declare-sort S62 0)
(declare-sort S63 0)
(declare-sort S64 0)
(declare-sort S65 0)
(declare-sort S66 0)
(declare-sort S67 0)
(declare-sort S68 0)
(declare-sort S69 0)
(declare-sort S70 0)
(declare-sort S71 0)
(declare-sort S72 0)
(declare-sort S73 0)
(declare-sort S74 0)
(declare-sort S75 0)
(declare-sort S76 0)
(declare-sort S77 0)
(declare-sort S78 0)
(declare-sort S79 0)
(declare-sort S80 0)
(declare-sort S81 0)
(declare-sort S82 0)
(declare-sort S83 0)
(declare-fun f1 () S1)
(declare-fun f2 () S1)
(declare-fun f3 () S3)
(declare-fun f4 (S5 S2) S2)
(declare-fun f5 () S5)
(declare-fun f6 (S6 S2) S5)
(declare-fun f7 () S6)
(declare-fun f8 () S4)
(declare-fun f9 () S2)
(declare-fun f10 (S7 S4) S2)
(declare-fun f11 () S7)
(declare-fun f12 (S8 S4) S4)
(declare-fun f13 (S9 S3) S8)
(declare-fun f14 () S9)
(declare-fun f15 () S3)
(declare-fun f16 () S4)
(declare-fun f17 (S10 S3) S3)
(declare-fun f18 (S11 S4) S10)
(declare-fun f19 () S11)
(declare-fun f20 (S12 S3) S10)
(declare-fun f21 () S12)
(declare-fun f22 (S13 S2) S3)
(declare-fun f23 (S14 S3) S13)
(declare-fun f24 () S14)
(declare-fun f25 () S4)
(declare-fun f26 (S17 S16) S2)
(declare-fun f27 () S17)
(declare-fun f28 (S18 S16) S16)
(declare-fun f29 (S19 S15) S18)
(declare-fun f30 () S19)
(declare-fun f31 () S16)
(declare-fun f32 (S22 S21) S2)
(declare-fun f33 () S22)
(declare-fun f34 (S23 S21) S21)
(declare-fun f35 (S24 S20) S23)
(declare-fun f36 () S24)
(declare-fun f37 () S21)
(declare-fun f38 (S27 S26) S2)
(declare-fun f39 () S27)
(declare-fun f40 (S28 S26) S26)
(declare-fun f41 (S29 S25) S28)
(declare-fun f42 () S29)
(declare-fun f43 () S26)
(declare-fun f44 (S30 S25) S2)
(declare-fun f45 () S30)
(declare-fun f46 (S31 S25) S25)
(declare-fun f47 (S32 S4) S31)
(declare-fun f48 () S32)
(declare-fun f49 () S25)
(declare-fun f50 (S34 S20) S2)
(declare-fun f51 () S34)
(declare-fun f52 (S35 S20) S20)
(declare-fun f53 (S36 S33) S35)
(declare-fun f54 () S36)
(declare-fun f55 () S20)
(declare-fun f56 (S37 S15) S2)
(declare-fun f57 () S37)
(declare-fun f58 (S38 S15) S15)
(declare-fun f59 (S39 S2) S38)
(declare-fun f60 () S39)
(declare-fun f61 () S15)
(declare-fun f62 () S12)
(declare-fun f63 (S40 S15) S5)
(declare-fun f64 () S40)
(declare-fun f65 () S6)
(declare-fun f66 (S41 S21) S35)
(declare-fun f67 () S41)
(declare-fun f68 (S42 S20) S35)
(declare-fun f69 () S42)
(declare-fun f70 () S42)
(declare-fun f71 (S43 S26) S31)
(declare-fun f72 () S43)
(declare-fun f73 (S44 S25) S31)
(declare-fun f74 () S44)
(declare-fun f75 () S44)
(declare-fun f76 (S46 S45) S18)
(declare-fun f77 () S46)
(declare-fun f78 (S47 S45) S45)
(declare-fun f79 (S48 S16) S47)
(declare-fun f80 () S48)
(declare-fun f81 (S49 S16) S18)
(declare-fun f82 () S49)
(declare-fun f83 () S49)
(declare-fun f84 (S50 S16) S38)
(declare-fun f85 () S50)
(declare-fun f86 (S51 S15) S38)
(declare-fun f87 () S51)
(declare-fun f88 () S51)
(declare-fun f89 (S52 S25) S8)
(declare-fun f90 () S52)
(declare-fun f91 (S53 S4) S8)
(declare-fun f92 () S53)
(declare-fun f93 () S53)
(declare-fun f94 (S54 S33) S33)
(declare-fun f95 (S55 S20) S54)
(declare-fun f96 () S55)
(declare-fun f97 (S56 S33) S54)
(declare-fun f98 () S56)
(declare-fun f99 () S56)
(declare-fun f100 () S7)
(declare-fun f101 () S22)
(declare-fun f102 () S17)
(declare-fun f103 () S27)
(declare-fun f104 () S30)
(declare-fun f105 () S37)
(declare-fun f106 () S34)
(declare-fun f107 () S33)
(declare-fun f108 (S57 S58) S23)
(declare-fun f109 () S57)
(declare-fun f110 () S58)
(declare-fun f111 () S45)
(declare-fun f112 (S59 S60) S28)
(declare-fun f113 () S59)
(declare-fun f114 () S60)
(declare-fun f115 (S61 S58) S58)
(declare-fun f116 (S62 S21) S61)
(declare-fun f117 () S62)
(declare-fun f118 (S63 S60) S60)
(declare-fun f119 (S64 S26) S63)
(declare-fun f120 () S64)
(declare-fun f121 (S65 S21) S23)
(declare-fun f122 () S65)
(declare-fun f123 (S66 S26) S28)
(declare-fun f124 () S66)
(declare-fun f125 () S65)
(declare-fun f126 () S66)
(declare-fun f127 (S67 S45) S47)
(declare-fun f128 () S67)
(declare-fun f129 () S67)
(declare-fun f130 (S68 S2) S4)
(declare-fun f131 (S69 S4) S68)
(declare-fun f132 () S69)
(declare-fun f133 (S70 S2) S16)
(declare-fun f134 (S71 S16) S70)
(declare-fun f135 () S71)
(declare-fun f136 (S72 S2) S15)
(declare-fun f137 (S73 S15) S72)
(declare-fun f138 () S73)
(declare-fun f139 (S74 S2) S21)
(declare-fun f140 (S75 S21) S74)
(declare-fun f141 () S75)
(declare-fun f142 (S76 S2) S20)
(declare-fun f143 (S77 S20) S76)
(declare-fun f144 () S77)
(declare-fun f145 (S78 S2) S26)
(declare-fun f146 (S79 S26) S78)
(declare-fun f147 () S79)
(declare-fun f148 (S80 S2) S25)
(declare-fun f149 (S81 S25) S80)
(declare-fun f150 () S81)
(declare-fun f151 (S82 S2) S33)
(declare-fun f152 (S83 S33) S82)
(declare-fun f153 () S83)
(declare-fun f154 () S6)
(assert (not (= f1 f2)))
(assert (not (exists ((?v0 S2) (?v1 S3) (?v2 S4)) (let ((?v_0 (f12 (f13 f14 f15) f16))) (and (not (= ?v1 f3)) (and (= (f4 f5 (f4 (f6 f7 (ite (= ?v2 f8) f9 (f4 f5 (f10 f11 ?v2)))) ?v0)) (ite (= ?v_0 f8) f9 (f4 f5 (f10 f11 ?v_0)))) (forall ((?v3 S3)) (= (f17 (f18 f19 ?v_0) ?v3) (f17 (f20 f21 (f22 (f23 f24 ?v3) ?v0)) (f17 (f18 f19 (f12 (f13 f14 ?v1) ?v2)) ?v3))))))))))
(assert (not (= f15 f3)))
(assert (not (= f15 f3)))
(assert (not (forall ((?v0 S3)) (=> (not (= ?v0 f3)) (= (f17 (f18 f19 f25) ?v0) f3)))))
(assert (not (forall ((?v0 S3)) (=> (not (= ?v0 f3)) (= (f17 (f18 f19 (f12 (f13 f14 f15) f16)) ?v0) f3)))))
(assert (=> (not (forall ((?v0 S3)) (=> (not (= ?v0 f3)) (= (f17 (f18 f19 f16) ?v0) f3)))) (exists ((?v0 S2) (?v1 S3) (?v2 S4)) (and (not (= ?v1 f3)) (and (= (f4 f5 (f4 (f6 f7 (ite (= ?v2 f8) f9 (f4 f5 (f10 f11 ?v2)))) ?v0)) (ite (= f16 f8) f9 (f4 f5 (f10 f11 f16)))) (forall ((?v3 S3)) (= (f17 (f18 f19 f16) ?v3) (f17 (f20 f21 (f22 (f23 f24 ?v3) ?v0)) (f17 (f18 f19 (f12 (f13 f14 ?v1) ?v2)) ?v3)))))))))
(assert (=> (= f15 f3) (exists ((?v0 S2) (?v1 S3) (?v2 S4)) (let ((?v_0 (f12 (f13 f14 f15) f16))) (and (not (= ?v1 f3)) (and (= (f4 f5 (f4 (f6 f7 (ite (= ?v2 f8) f9 (f4 f5 (f10 f11 ?v2)))) ?v0)) (ite (= ?v_0 f8) f9 (f4 f5 (f10 f11 ?v_0)))) (forall ((?v3 S3)) (= (f17 (f18 f19 ?v_0) ?v3) (f17 (f20 f21 (f22 (f23 f24 ?v3) ?v0)) (f17 (f18 f19 (f12 (f13 f14 ?v1) ?v2)) ?v3))))))))))
(assert (forall ((?v0 S3) (?v1 S4)) (= (f10 f11 (f12 (f13 f14 ?v0) ?v1)) (ite (= ?v1 f8) f9 (f4 f5 (f10 f11 ?v1))))))
(assert (forall ((?v0 S15) (?v1 S16)) (= (f26 f27 (f28 (f29 f30 ?v0) ?v1)) (ite (= ?v1 f31) f9 (f4 f5 (f26 f27 ?v1))))))
(assert (forall ((?v0 S20) (?v1 S21)) (= (f32 f33 (f34 (f35 f36 ?v0) ?v1)) (ite (= ?v1 f37) f9 (f4 f5 (f32 f33 ?v1))))))
(assert (forall ((?v0 S25) (?v1 S26)) (= (f38 f39 (f40 (f41 f42 ?v0) ?v1)) (ite (= ?v1 f43) f9 (f4 f5 (f38 f39 ?v1))))))
(assert (forall ((?v0 S4) (?v1 S25)) (= (f44 f45 (f46 (f47 f48 ?v0) ?v1)) (ite (= ?v1 f49) f9 (f4 f5 (f44 f45 ?v1))))))
(assert (forall ((?v0 S33) (?v1 S20)) (= (f50 f51 (f52 (f53 f54 ?v0) ?v1)) (ite (= ?v1 f55) f9 (f4 f5 (f50 f51 ?v1))))))
(assert (forall ((?v0 S2) (?v1 S15)) (= (f56 f57 (f58 (f59 f60 ?v0) ?v1)) (ite (= ?v1 f61) f9 (f4 f5 (f56 f57 ?v1))))))
(assert (forall ((?v0 S4) (?v1 S3)) (=> (not (= ?v0 f8)) (= (f10 f11 (f12 (f13 f14 ?v1) ?v0)) (f4 f5 (f10 f11 ?v0))))))
(assert (forall ((?v0 S16) (?v1 S15)) (=> (not (= ?v0 f31)) (= (f26 f27 (f28 (f29 f30 ?v1) ?v0)) (f4 f5 (f26 f27 ?v0))))))
(assert (forall ((?v0 S21) (?v1 S20)) (=> (not (= ?v0 f37)) (= (f32 f33 (f34 (f35 f36 ?v1) ?v0)) (f4 f5 (f32 f33 ?v0))))))
(assert (forall ((?v0 S26) (?v1 S25)) (=> (not (= ?v0 f43)) (= (f38 f39 (f40 (f41 f42 ?v1) ?v0)) (f4 f5 (f38 f39 ?v0))))))
(assert (forall ((?v0 S25) (?v1 S4)) (=> (not (= ?v0 f49)) (= (f44 f45 (f46 (f47 f48 ?v1) ?v0)) (f4 f5 (f44 f45 ?v0))))))
(assert (forall ((?v0 S20) (?v1 S33)) (=> (not (= ?v0 f55)) (= (f50 f51 (f52 (f53 f54 ?v1) ?v0)) (f4 f5 (f50 f51 ?v0))))))
(assert (forall ((?v0 S15) (?v1 S2)) (=> (not (= ?v0 f61)) (= (f56 f57 (f58 (f59 f60 ?v1) ?v0)) (f4 f5 (f56 f57 ?v0))))))
(assert (forall ((?v0 S3)) (= (f10 f11 (f12 (f13 f14 ?v0) f8)) f9)))
(assert (forall ((?v0 S15)) (= (f26 f27 (f28 (f29 f30 ?v0) f31)) f9)))
(assert (forall ((?v0 S20)) (= (f32 f33 (f34 (f35 f36 ?v0) f37)) f9)))
(assert (forall ((?v0 S25)) (= (f38 f39 (f40 (f41 f42 ?v0) f43)) f9)))
(assert (forall ((?v0 S4)) (= (f44 f45 (f46 (f47 f48 ?v0) f49)) f9)))
(assert (forall ((?v0 S33)) (= (f50 f51 (f52 (f53 f54 ?v0) f55)) f9)))
(assert (forall ((?v0 S2)) (= (f56 f57 (f58 (f59 f60 ?v0) f61)) f9)))
(assert (forall ((?v0 S3) (?v1 S4) (?v2 S3)) (= (f17 (f18 f19 (f12 (f13 f14 ?v0) ?v1)) ?v2) (f17 (f20 f62 ?v0) (f17 (f20 f21 ?v2) (f17 (f18 f19 ?v1) ?v2))))))
(assert (forall ((?v0 S2) (?v1 S15) (?v2 S2)) (= (f4 (f63 f64 (f58 (f59 f60 ?v0) ?v1)) ?v2) (f4 (f6 f7 ?v0) (f4 (f6 f65 ?v2) (f4 (f63 f64 ?v1) ?v2))))))
(assert (forall ((?v0 S20) (?v1 S21) (?v2 S20)) (= (f52 (f66 f67 (f34 (f35 f36 ?v0) ?v1)) ?v2) (f52 (f68 f69 ?v0) (f52 (f68 f70 ?v2) (f52 (f66 f67 ?v1) ?v2))))))
(assert (forall ((?v0 S25) (?v1 S26) (?v2 S25)) (= (f46 (f71 f72 (f40 (f41 f42 ?v0) ?v1)) ?v2) (f46 (f73 f74 ?v0) (f46 (f73 f75 ?v2) (f46 (f71 f72 ?v1) ?v2))))))
(assert (forall ((?v0 S16) (?v1 S45) (?v2 S16)) (= (f28 (f76 f77 (f78 (f79 f80 ?v0) ?v1)) ?v2) (f28 (f81 f82 ?v0) (f28 (f81 f83 ?v2) (f28 (f76 f77 ?v1) ?v2))))))
(assert (forall ((?v0 S15) (?v1 S16) (?v2 S15)) (= (f58 (f84 f85 (f28 (f29 f30 ?v0) ?v1)) ?v2) (f58 (f86 f87 ?v0) (f58 (f86 f88 ?v2) (f58 (f84 f85 ?v1) ?v2))))))
(assert (forall ((?v0 S4) (?v1 S25) (?v2 S4)) (= (f12 (f89 f90 (f46 (f47 f48 ?v0) ?v1)) ?v2) (f12 (f91 f92 ?v0) (f12 (f91 f93 ?v2) (f12 (f89 f90 ?v1) ?v2))))))
(assert (forall ((?v0 S33) (?v1 S20) (?v2 S33)) (= (f94 (f95 f96 (f52 (f53 f54 ?v0) ?v1)) ?v2) (f94 (f97 f98 ?v0) (f94 (f97 f99 ?v2) (f94 (f95 f96 ?v1) ?v2))))))
(assert (forall ((?v0 S4)) (= (f10 f100 ?v0) (ite (= ?v0 f8) f9 (f4 f5 (f10 f11 ?v0))))))
(assert (forall ((?v0 S21)) (= (f32 f101 ?v0) (ite (= ?v0 f37) f9 (f4 f5 (f32 f33 ?v0))))))
(assert (forall ((?v0 S16)) (= (f26 f102 ?v0) (ite (= ?v0 f31) f9 (f4 f5 (f26 f27 ?v0))))))
(assert (forall ((?v0 S26)) (= (f38 f103 ?v0) (ite (= ?v0 f43) f9 (f4 f5 (f38 f39 ?v0))))))
(assert (forall ((?v0 S25)) (= (f44 f104 ?v0) (ite (= ?v0 f49) f9 (f4 f5 (f44 f45 ?v0))))))
(assert (forall ((?v0 S15)) (= (f56 f105 ?v0) (ite (= ?v0 f61) f9 (f4 f5 (f56 f57 ?v0))))))
(assert (forall ((?v0 S20)) (= (f50 f106 ?v0) (ite (= ?v0 f55) f9 (f4 f5 (f50 f51 ?v0))))))
(assert (forall ((?v0 S3)) (= (f17 (f18 f19 f8) ?v0) f3)))
(assert (forall ((?v0 S33)) (= (f94 (f95 f96 f55) ?v0) f107)))
(assert (forall ((?v0 S2)) (= (f4 (f63 f64 f61) ?v0) f9)))
(assert (forall ((?v0 S4)) (= (f12 (f89 f90 f49) ?v0) f8)))
(assert (forall ((?v0 S21)) (= (f34 (f108 f109 f110) ?v0) f37)))
(assert (forall ((?v0 S16)) (= (f28 (f76 f77 f111) ?v0) f31)))
(assert (forall ((?v0 S26)) (= (f40 (f112 f113 f114) ?v0) f43)))
(assert (forall ((?v0 S25)) (= (f46 (f71 f72 f43) ?v0) f49)))
(assert (forall ((?v0 S15)) (= (f58 (f84 f85 f31) ?v0) f61)))
(assert (forall ((?v0 S20)) (= (f52 (f66 f67 f37) ?v0) f55)))
(assert (= (f10 f11 f8) f9))
(assert (= (f32 f33 f37) f9))
(assert (= (f26 f27 f31) f9))
(assert (= (f38 f39 f43) f9))
(assert (= (f44 f45 f49) f9))
(assert (= (f56 f57 f61) f9))
(assert (= (f50 f51 f55) f9))
(assert (= (f12 (f13 f14 f3) f8) f8))
(assert (= (f52 (f53 f54 f107) f55) f55))
(assert (= (f58 (f59 f60 f9) f61) f61))
(assert (= (f46 (f47 f48 f8) f49) f49))
(assert (= (f115 (f116 f117 f37) f110) f110))
(assert (= (f78 (f79 f80 f31) f111) f111))
(assert (= (f118 (f119 f120 f43) f114) f114))
(assert (= (f40 (f41 f42 f49) f43) f43))
(assert (= (f28 (f29 f30 f61) f31) f31))
(assert (= (f34 (f35 f36 f55) f37) f37))
(assert (forall ((?v0 S3) (?v1 S4)) (= (= (f12 (f13 f14 ?v0) ?v1) f8) (and (= ?v0 f3) (= ?v1 f8)))))
(assert (forall ((?v0 S33) (?v1 S20)) (= (= (f52 (f53 f54 ?v0) ?v1) f55) (and (= ?v0 f107) (= ?v1 f55)))))
(assert (forall ((?v0 S2) (?v1 S15)) (= (= (f58 (f59 f60 ?v0) ?v1) f61) (and (= ?v0 f9) (= ?v1 f61)))))
(assert (forall ((?v0 S4) (?v1 S25)) (= (= (f46 (f47 f48 ?v0) ?v1) f49) (and (= ?v0 f8) (= ?v1 f49)))))
(assert (forall ((?v0 S21) (?v1 S58)) (= (= (f115 (f116 f117 ?v0) ?v1) f110) (and (= ?v0 f37) (= ?v1 f110)))))
(assert (forall ((?v0 S16) (?v1 S45)) (= (= (f78 (f79 f80 ?v0) ?v1) f111) (and (= ?v0 f31) (= ?v1 f111)))))
(assert (forall ((?v0 S26) (?v1 S60)) (= (= (f118 (f119 f120 ?v0) ?v1) f114) (and (= ?v0 f43) (= ?v1 f114)))))
(assert (forall ((?v0 S25) (?v1 S26)) (= (= (f40 (f41 f42 ?v0) ?v1) f43) (and (= ?v0 f49) (= ?v1 f43)))))
(assert (forall ((?v0 S15) (?v1 S16)) (= (= (f28 (f29 f30 ?v0) ?v1) f31) (and (= ?v0 f61) (= ?v1 f31)))))
(assert (forall ((?v0 S20) (?v1 S21)) (= (= (f34 (f35 f36 ?v0) ?v1) f37) (and (= ?v0 f55) (= ?v1 f37)))))
(assert (forall ((?v0 S2) (?v1 S2)) (let ((?v_0 (f4 f5 f9))) (= (= ?v_0 (f4 (f6 f7 ?v0) ?v1)) (or (and (= ?v0 ?v_0) (= ?v1 f9)) (and (= ?v0 f9) (= ?v1 ?v_0)))))))
(assert (forall ((?v0 S2) (?v1 S2)) (let ((?v_0 (f4 f5 f9))) (= (= (f4 (f6 f7 ?v0) ?v1) ?v_0) (or (and (= ?v0 ?v_0) (= ?v1 f9)) (and (= ?v0 f9) (= ?v1 ?v_0)))))))
(assert (forall ((?v0 S2) (?v1 S2) (?v2 S2)) (= (= (f4 (f6 f65 ?v0) ?v1) (f4 (f6 f65 ?v2) ?v1)) (or (= ?v0 ?v2) (= ?v1 f9)))))
(assert (forall ((?v0 S2) (?v1 S2) (?v2 S2)) (let ((?v_0 (f6 f65 ?v0))) (= (= (f4 ?v_0 ?v1) (f4 ?v_0 ?v2)) (or (= ?v1 ?v2) (= ?v0 f9))))))
(assert (forall ((?v0 S2) (?v1 S2)) (= (= (f4 (f6 f65 ?v0) ?v1) f9) (or (= ?v0 f9) (= ?v1 f9)))))
(assert (forall ((?v0 S2)) (= (f4 (f6 f65 ?v0) f9) f9)))
(assert (forall ((?v0 S2)) (= (f4 (f6 f65 f9) ?v0) f9)))
(assert (forall ((?v0 S2) (?v1 S2) (?v2 S2)) (let ((?v_0 (f6 f65 (f4 f5 ?v0)))) (= (= (f4 ?v_0 ?v1) (f4 ?v_0 ?v2)) (= ?v1 ?v2)))))
(assert (forall ((?v0 S2) (?v1 S2) (?v2 S2)) (= (f4 (f6 f65 (f4 (f6 f7 ?v0) ?v1)) ?v2) (f4 (f6 f7 (f4 (f6 f65 ?v0) ?v2)) (f4 (f6 f65 ?v1) ?v2)))))
(assert (forall ((?v0 S2) (?v1 S2) (?v2 S2)) (let ((?v_0 (f6 f65 ?v0))) (= (f4 ?v_0 (f4 (f6 f7 ?v1) ?v2)) (f4 (f6 f7 (f4 ?v_0 ?v1)) (f4 ?v_0 ?v2))))))
(assert (forall ((?v0 S4)) (= (f12 (f91 f92 ?v0) f8) ?v0)))
(assert (forall ((?v0 S16)) (= (f28 (f81 f82 ?v0) f31) ?v0)))
(assert (forall ((?v0 S21)) (= (f34 (f121 f122 ?v0) f37) ?v0)))
(assert (forall ((?v0 S26)) (= (f40 (f123 f124 ?v0) f43) ?v0)))
(assert (forall ((?v0 S25)) (= (f46 (f73 f74 ?v0) f49) ?v0)))
(assert (forall ((?v0 S20)) (= (f52 (f68 f69 ?v0) f55) ?v0)))
(assert (forall ((?v0 S15)) (= (f58 (f86 f87 ?v0) f61) ?v0)))
(assert (forall ((?v0 S4)) (= (f12 (f91 f92 f8) ?v0) ?v0)))
(assert (forall ((?v0 S16)) (= (f28 (f81 f82 f31) ?v0) ?v0)))
(assert (forall ((?v0 S21)) (= (f34 (f121 f122 f37) ?v0) ?v0)))
(assert (forall ((?v0 S26)) (= (f40 (f123 f124 f43) ?v0) ?v0)))
(assert (forall ((?v0 S25)) (= (f46 (f73 f74 f49) ?v0) ?v0)))
(assert (forall ((?v0 S20)) (= (f52 (f68 f69 f55) ?v0) ?v0)))
(assert (forall ((?v0 S15)) (= (f58 (f86 f87 f61) ?v0) ?v0)))
(assert (forall ((?v0 S4)) (= (f12 (f91 f93 ?v0) f8) f8)))
(assert (forall ((?v0 S21)) (= (f34 (f121 f125 ?v0) f37) f37)))
(assert (forall ((?v0 S16)) (= (f28 (f81 f83 ?v0) f31) f31)))
(assert (forall ((?v0 S26)) (= (f40 (f123 f126 ?v0) f43) f43)))
(assert (forall ((?v0 S25)) (= (f46 (f73 f75 ?v0) f49) f49)))
(assert (forall ((?v0 S15)) (= (f58 (f86 f88 ?v0) f61) f61)))
(assert (forall ((?v0 S20)) (= (f52 (f68 f70 ?v0) f55) f55)))
(assert (forall ((?v0 S4)) (= (f12 (f91 f93 f8) ?v0) f8)))
(assert (forall ((?v0 S21)) (= (f34 (f121 f125 f37) ?v0) f37)))
(assert (forall ((?v0 S16)) (= (f28 (f81 f83 f31) ?v0) f31)))
(assert (forall ((?v0 S26)) (= (f40 (f123 f126 f43) ?v0) f43)))
(assert (forall ((?v0 S25)) (= (f46 (f73 f75 f49) ?v0) f49)))
(assert (forall ((?v0 S15)) (= (f58 (f86 f88 f61) ?v0) f61)))
(assert (forall ((?v0 S20)) (= (f52 (f68 f70 f55) ?v0) f55)))
(assert (forall ((?v0 S2) (?v1 S2)) (let ((?v_0 (f4 f5 f9))) (= (= (f4 (f6 f65 ?v0) ?v1) ?v_0) (and (= ?v0 ?v_0) (= ?v1 ?v_0))))))
(assert (forall ((?v0 S2) (?v1 S2)) (= (f4 (f6 f65 (f4 f5 ?v0)) ?v1) (f4 (f6 f7 ?v1) (f4 (f6 f65 ?v0) ?v1)))))
(assert (forall ((?v0 S2) (?v1 S2)) (let ((?v_0 (f6 f65 ?v0))) (= (f4 ?v_0 (f4 f5 ?v1)) (f4 (f6 f7 ?v0) (f4 ?v_0 ?v1))))))
(assert (forall ((?v0 S4) (?v1 S4)) (=> (not (= ?v0 f8)) (=> (not (= ?v1 f8)) (= (f10 f11 (f12 (f91 f93 ?v0) ?v1)) (f4 (f6 f7 (f10 f11 ?v0)) (f10 f11 ?v1)))))))
(assert (forall ((?v0 S21) (?v1 S21)) (=> (not (= ?v0 f37)) (=> (not (= ?v1 f37)) (= (f32 f33 (f34 (f121 f125 ?v0) ?v1)) (f4 (f6 f7 (f32 f33 ?v0)) (f32 f33 ?v1)))))))
(assert (forall ((?v0 S26) (?v1 S26)) (=> (not (= ?v0 f43)) (=> (not (= ?v1 f43)) (= (f38 f39 (f40 (f123 f126 ?v0) ?v1)) (f4 (f6 f7 (f38 f39 ?v0)) (f38 f39 ?v1)))))))
(assert (forall ((?v0 S25) (?v1 S25)) (=> (not (= ?v0 f49)) (=> (not (= ?v1 f49)) (= (f44 f45 (f46 (f73 f75 ?v0) ?v1)) (f4 (f6 f7 (f44 f45 ?v0)) (f44 f45 ?v1)))))))
(assert (forall ((?v0 S20) (?v1 S20)) (=> (not (= ?v0 f55)) (=> (not (= ?v1 f55)) (= (f50 f51 (f52 (f68 f70 ?v0) ?v1)) (f4 (f6 f7 (f50 f51 ?v0)) (f50 f51 ?v1)))))))
(assert (forall ((?v0 S2) (?v1 S2)) (=> (= (f4 f5 ?v0) (f4 f5 ?v1)) (= ?v0 ?v1))))
(assert (forall ((?v0 S2) (?v1 S2)) (= (= (f4 f5 ?v0) (f4 f5 ?v1)) (= ?v0 ?v1))))
(assert (forall ((?v0 S2)) (not (= (f4 f5 ?v0) ?v0))))
(assert (forall ((?v0 S2)) (not (= ?v0 (f4 f5 ?v0)))))
(assert (forall ((?v0 S2) (?v1 S2) (?v2 S2)) (= (= (f4 (f6 f7 ?v0) ?v1) (f4 (f6 f7 ?v2) ?v1)) (= ?v0 ?v2))))
(assert (forall ((?v0 S2) (?v1 S2) (?v2 S2)) (let ((?v_0 (f6 f7 ?v0))) (= (= (f4 ?v_0 ?v1) (f4 ?v_0 ?v2)) (= ?v1 ?v2)))))
(assert (forall ((?v0 S2) (?v1 S2) (?v2 S2)) (let ((?v_0 (f6 f7 ?v0))) (= (f4 (f6 f7 (f4 ?v_0 ?v1)) ?v2) (f4 ?v_0 (f4 (f6 f7 ?v1) ?v2))))))
(assert (forall ((?v0 S2) (?v1 S2) (?v2 S2)) (let ((?v_1 (f6 f7 ?v0)) (?v_0 (f6 f7 ?v1))) (= (f4 ?v_1 (f4 ?v_0 ?v2)) (f4 ?v_0 (f4 ?v_1 ?v2))))))
(assert (forall ((?v0 S2) (?v1 S2)) (= (f4 (f6 f7 ?v0) ?v1) (f4 (f6 f7 ?v1) ?v0))))
(assert (forall ((?v0 S3) (?v1 S4) (?v2 S3) (?v3 S4)) (= (= (f12 (f13 f14 ?v0) ?v1) (f12 (f13 f14 ?v2) ?v3)) (and (= ?v0 ?v2) (= ?v1 ?v3)))))
(assert (forall ((?v0 S15) (?v1 S16) (?v2 S15) (?v3 S16)) (= (= (f28 (f29 f30 ?v0) ?v1) (f28 (f29 f30 ?v2) ?v3)) (and (= ?v0 ?v2) (= ?v1 ?v3)))))
(assert (forall ((?v0 S20) (?v1 S21) (?v2 S20) (?v3 S21)) (= (= (f34 (f35 f36 ?v0) ?v1) (f34 (f35 f36 ?v2) ?v3)) (and (= ?v0 ?v2) (= ?v1 ?v3)))))
(assert (forall ((?v0 S25) (?v1 S26) (?v2 S25) (?v3 S26)) (= (= (f40 (f41 f42 ?v0) ?v1) (f40 (f41 f42 ?v2) ?v3)) (and (= ?v0 ?v2) (= ?v1 ?v3)))))
(assert (forall ((?v0 S4) (?v1 S25) (?v2 S4) (?v3 S25)) (= (= (f46 (f47 f48 ?v0) ?v1) (f46 (f47 f48 ?v2) ?v3)) (and (= ?v0 ?v2) (= ?v1 ?v3)))))
(assert (forall ((?v0 S33) (?v1 S20) (?v2 S33) (?v3 S20)) (= (= (f52 (f53 f54 ?v0) ?v1) (f52 (f53 f54 ?v2) ?v3)) (and (= ?v0 ?v2) (= ?v1 ?v3)))))
(assert (forall ((?v0 S2) (?v1 S15) (?v2 S2) (?v3 S15)) (= (= (f58 (f59 f60 ?v0) ?v1) (f58 (f59 f60 ?v2) ?v3)) (and (= ?v0 ?v2) (= ?v1 ?v3)))))
(assert (forall ((?v0 S21) (?v1 S21)) (= (= (f66 f67 ?v0) (f66 f67 ?v1)) (= ?v0 ?v1))))
(assert (forall ((?v0 S20) (?v1 S20)) (= (= (f95 f96 ?v0) (f95 f96 ?v1)) (= ?v0 ?v1))))
(assert (forall ((?v0 S2)) (=> (= (f4 f5 ?v0) f9) false)))
(assert (forall ((?v0 S2)) (=> (= f9 (f4 f5 ?v0)) false)))
(assert (forall ((?v0 S2)) (not (= (f4 f5 ?v0) f9))))
(assert (forall ((?v0 S2)) (not (= (f4 f5 ?v0) f9))))
(assert (forall ((?v0 S2)) (not (= f9 (f4 f5 ?v0)))))
(assert (forall ((?v0 S2)) (not (= f9 (f4 f5 ?v0)))))
(assert (forall ((?v0 S2) (?v1 S2)) (=> (= (f4 (f6 f7 ?v0) ?v1) ?v0) (= ?v1 f9))))
(assert (forall ((?v0 S2) (?v1 S2)) (= (= (f4 (f6 f7 ?v0) ?v1) f9) (and (= ?v0 f9) (= ?v1 f9)))))
(assert (forall ((?v0 S2)) (= (f4 (f6 f7 ?v0) f9) ?v0)))
(assert (forall ((?v0 S2)) (= (f4 (f6 f7 f9) ?v0) ?v0)))
(assert (forall ((?v0 S2) (?v1 S2)) (= (f4 (f6 f7 (f4 f5 ?v0)) ?v1) (f4 (f6 f7 ?v0) (f4 f5 ?v1)))))
(assert (forall ((?v0 S2) (?v1 S2)) (= (f4 (f6 f7 (f4 f5 ?v0)) ?v1) (f4 f5 (f4 (f6 f7 ?v0) ?v1)))))
(assert (forall ((?v0 S2) (?v1 S2)) (let ((?v_0 (f6 f7 ?v0))) (= (f4 ?v_0 (f4 f5 ?v1)) (f4 f5 (f4 ?v_0 ?v1))))))
(assert (forall ((?v0 S4)) (= (= (f10 f100 ?v0) f9) (= ?v0 f8))))
(assert (forall ((?v0 S21)) (= (= (f32 f101 ?v0) f9) (= ?v0 f37))))
(assert (forall ((?v0 S16)) (= (= (f26 f102 ?v0) f9) (= ?v0 f31))))
(assert (forall ((?v0 S26)) (= (= (f38 f103 ?v0) f9) (= ?v0 f43))))
(assert (forall ((?v0 S25)) (= (= (f44 f104 ?v0) f9) (= ?v0 f49))))
(assert (forall ((?v0 S15)) (= (= (f56 f105 ?v0) f9) (= ?v0 f61))))
(assert (forall ((?v0 S20)) (= (= (f50 f106 ?v0) f9) (= ?v0 f55))))
(assert (forall ((?v0 S3) (?v1 S4) (?v2 S3) (?v3 S4)) (= (f12 (f91 f92 (f12 (f13 f14 ?v0) ?v1)) (f12 (f13 f14 ?v2) ?v3)) (f12 (f13 f14 (f17 (f20 f62 ?v0) ?v2)) (f12 (f91 f92 ?v1) ?v3)))))
(assert (forall ((?v0 S2) (?v1 S15) (?v2 S2) (?v3 S15)) (= (f58 (f86 f87 (f58 (f59 f60 ?v0) ?v1)) (f58 (f59 f60 ?v2) ?v3)) (f58 (f59 f60 (f4 (f6 f7 ?v0) ?v2)) (f58 (f86 f87 ?v1) ?v3)))))
(assert (forall ((?v0 S20) (?v1 S21) (?v2 S20) (?v3 S21)) (= (f34 (f121 f122 (f34 (f35 f36 ?v0) ?v1)) (f34 (f35 f36 ?v2) ?v3)) (f34 (f35 f36 (f52 (f68 f69 ?v0) ?v2)) (f34 (f121 f122 ?v1) ?v3)))))
(assert (forall ((?v0 S25) (?v1 S26) (?v2 S25) (?v3 S26)) (= (f40 (f123 f124 (f40 (f41 f42 ?v0) ?v1)) (f40 (f41 f42 ?v2) ?v3)) (f40 (f41 f42 (f46 (f73 f74 ?v0) ?v2)) (f40 (f123 f124 ?v1) ?v3)))))
(assert (forall ((?v0 S16) (?v1 S45) (?v2 S16) (?v3 S45)) (= (f78 (f127 f128 (f78 (f79 f80 ?v0) ?v1)) (f78 (f79 f80 ?v2) ?v3)) (f78 (f79 f80 (f28 (f81 f82 ?v0) ?v2)) (f78 (f127 f128 ?v1) ?v3)))))
(assert (forall ((?v0 S15) (?v1 S16) (?v2 S15) (?v3 S16)) (= (f28 (f81 f82 (f28 (f29 f30 ?v0) ?v1)) (f28 (f29 f30 ?v2) ?v3)) (f28 (f29 f30 (f58 (f86 f87 ?v0) ?v2)) (f28 (f81 f82 ?v1) ?v3)))))
(assert (forall ((?v0 S4) (?v1 S25) (?v2 S4) (?v3 S25)) (= (f46 (f73 f74 (f46 (f47 f48 ?v0) ?v1)) (f46 (f47 f48 ?v2) ?v3)) (f46 (f47 f48 (f12 (f91 f92 ?v0) ?v2)) (f46 (f73 f74 ?v1) ?v3)))))
(assert (forall ((?v0 S33) (?v1 S20) (?v2 S33) (?v3 S20)) (= (f52 (f68 f69 (f52 (f53 f54 ?v0) ?v1)) (f52 (f53 f54 ?v2) ?v3)) (f52 (f53 f54 (f94 (f97 f98 ?v0) ?v2)) (f52 (f68 f69 ?v1) ?v3)))))
(assert (forall ((?v0 S4) (?v1 S4) (?v2 S3)) (= (f17 (f18 f19 (f12 (f91 f93 ?v0) ?v1)) ?v2) (f17 (f20 f21 (f17 (f18 f19 ?v0) ?v2)) (f17 (f18 f19 ?v1) ?v2)))))
(assert (forall ((?v0 S15) (?v1 S15) (?v2 S2)) (= (f4 (f63 f64 (f58 (f86 f88 ?v0) ?v1)) ?v2) (f4 (f6 f65 (f4 (f63 f64 ?v0) ?v2)) (f4 (f63 f64 ?v1) ?v2)))))
(assert (forall ((?v0 S21) (?v1 S21) (?v2 S20)) (= (f52 (f66 f67 (f34 (f121 f125 ?v0) ?v1)) ?v2) (f52 (f68 f70 (f52 (f66 f67 ?v0) ?v2)) (f52 (f66 f67 ?v1) ?v2)))))
(assert (forall ((?v0 S26) (?v1 S26) (?v2 S25)) (= (f46 (f71 f72 (f40 (f123 f126 ?v0) ?v1)) ?v2) (f46 (f73 f75 (f46 (f71 f72 ?v0) ?v2)) (f46 (f71 f72 ?v1) ?v2)))))
(assert (forall ((?v0 S45) (?v1 S45) (?v2 S16)) (= (f28 (f76 f77 (f78 (f127 f129 ?v0) ?v1)) ?v2) (f28 (f81 f83 (f28 (f76 f77 ?v0) ?v2)) (f28 (f76 f77 ?v1) ?v2)))))
(assert (forall ((?v0 S16) (?v1 S16) (?v2 S15)) (= (f58 (f84 f85 (f28 (f81 f83 ?v0) ?v1)) ?v2) (f58 (f86 f88 (f58 (f84 f85 ?v0) ?v2)) (f58 (f84 f85 ?v1) ?v2)))))
(assert (forall ((?v0 S25) (?v1 S25) (?v2 S4)) (= (f12 (f89 f90 (f46 (f73 f75 ?v0) ?v1)) ?v2) (f12 (f91 f93 (f12 (f89 f90 ?v0) ?v2)) (f12 (f89 f90 ?v1) ?v2)))))
(assert (forall ((?v0 S20) (?v1 S20) (?v2 S33)) (= (f94 (f95 f96 (f52 (f68 f70 ?v0) ?v1)) ?v2) (f94 (f97 f99 (f94 (f95 f96 ?v0) ?v2)) (f94 (f95 f96 ?v1) ?v2)))))
(assert (forall ((?v0 S4) (?v1 S4) (?v2 S3)) (= (f17 (f18 f19 (f12 (f91 f92 ?v0) ?v1)) ?v2) (f17 (f20 f62 (f17 (f18 f19 ?v0) ?v2)) (f17 (f18 f19 ?v1) ?v2)))))
(assert (forall ((?v0 S15) (?v1 S15) (?v2 S2)) (= (f4 (f63 f64 (f58 (f86 f87 ?v0) ?v1)) ?v2) (f4 (f6 f7 (f4 (f63 f64 ?v0) ?v2)) (f4 (f63 f64 ?v1) ?v2)))))
(assert (forall ((?v0 S21) (?v1 S21) (?v2 S20)) (= (f52 (f66 f67 (f34 (f121 f122 ?v0) ?v1)) ?v2) (f52 (f68 f69 (f52 (f66 f67 ?v0) ?v2)) (f52 (f66 f67 ?v1) ?v2)))))
(assert (forall ((?v0 S26) (?v1 S26) (?v2 S25)) (= (f46 (f71 f72 (f40 (f123 f124 ?v0) ?v1)) ?v2) (f46 (f73 f74 (f46 (f71 f72 ?v0) ?v2)) (f46 (f71 f72 ?v1) ?v2)))))
(assert (forall ((?v0 S45) (?v1 S45) (?v2 S16)) (= (f28 (f76 f77 (f78 (f127 f128 ?v0) ?v1)) ?v2) (f28 (f81 f82 (f28 (f76 f77 ?v0) ?v2)) (f28 (f76 f77 ?v1) ?v2)))))
(assert (forall ((?v0 S16) (?v1 S16) (?v2 S15)) (= (f58 (f84 f85 (f28 (f81 f82 ?v0) ?v1)) ?v2) (f58 (f86 f87 (f58 (f84 f85 ?v0) ?v2)) (f58 (f84 f85 ?v1) ?v2)))))
(assert (forall ((?v0 S25) (?v1 S25) (?v2 S4)) (= (f12 (f89 f90 (f46 (f73 f74 ?v0) ?v1)) ?v2) (f12 (f91 f92 (f12 (f89 f90 ?v0) ?v2)) (f12 (f89 f90 ?v1) ?v2)))))
(assert (forall ((?v0 S20) (?v1 S20) (?v2 S33)) (= (f94 (f95 f96 (f52 (f68 f69 ?v0) ?v1)) ?v2) (f94 (f97 f98 (f94 (f95 f96 ?v0) ?v2)) (f94 (f95 f96 ?v1) ?v2)))))
(assert (forall ((?v0 S4) (?v1 S2) (?v2 S3)) (= (f17 (f18 f19 (f130 (f131 f132 ?v0) ?v1)) ?v2) (f22 (f23 f24 (f17 (f18 f19 ?v0) ?v2)) ?v1))))
(assert (forall ((?v0 S16) (?v1 S2) (?v2 S15)) (= (f58 (f84 f85 (f133 (f134 f135 ?v0) ?v1)) ?v2) (f136 (f137 f138 (f58 (f84 f85 ?v0) ?v2)) ?v1))))
(assert (forall ((?v0 S21) (?v1 S2) (?v2 S20)) (= (f52 (f66 f67 (f139 (f140 f141 ?v0) ?v1)) ?v2) (f142 (f143 f144 (f52 (f66 f67 ?v0) ?v2)) ?v1))))
(assert (forall ((?v0 S26) (?v1 S2) (?v2 S25)) (= (f46 (f71 f72 (f145 (f146 f147 ?v0) ?v1)) ?v2) (f148 (f149 f150 (f46 (f71 f72 ?v0) ?v2)) ?v1))))
(assert (forall ((?v0 S25) (?v1 S2) (?v2 S4)) (= (f12 (f89 f90 (f148 (f149 f150 ?v0) ?v1)) ?v2) (f130 (f131 f132 (f12 (f89 f90 ?v0) ?v2)) ?v1))))
(assert (forall ((?v0 S20) (?v1 S2) (?v2 S33)) (= (f94 (f95 f96 (f142 (f143 f144 ?v0) ?v1)) ?v2) (f151 (f152 f153 (f94 (f95 f96 ?v0) ?v2)) ?v1))))
(assert (forall ((?v0 S15) (?v1 S2) (?v2 S2)) (= (f4 (f63 f64 (f136 (f137 f138 ?v0) ?v1)) ?v2) (f4 (f6 f154 (f4 (f63 f64 ?v0) ?v2)) ?v1))))
(assert (forall ((?v0 S21)) (= (= (f66 f67 ?v0) (f66 f67 f37)) (= ?v0 f37))))
(assert (forall ((?v0 S20)) (= (= (f95 f96 ?v0) (f95 f96 f55)) (= ?v0 f55))))
(assert (forall ((?v0 S3) (?v1 S2) (?v2 S2)) (let ((?v_0 (f23 f24 ?v0))) (= (f17 (f20 f21 (f22 ?v_0 ?v1)) (f22 ?v_0 ?v2)) (f22 ?v_0 (f4 (f6 f7 ?v1) ?v2))))))
(assert (forall ((?v0 S2) (?v1 S2) (?v2 S2)) (let ((?v_0 (f6 f154 ?v0))) (= (f4 (f6 f65 (f4 ?v_0 ?v1)) (f4 ?v_0 ?v2)) (f4 ?v_0 (f4 (f6 f7 ?v1) ?v2))))))
(assert (forall ((?v0 S20) (?v1 S2) (?v2 S2)) (let ((?v_0 (f143 f144 ?v0))) (= (f52 (f68 f70 (f142 ?v_0 ?v1)) (f142 ?v_0 ?v2)) (f142 ?v_0 (f4 (f6 f7 ?v1) ?v2))))))
(assert (forall ((?v0 S33) (?v1 S2) (?v2 S2)) (let ((?v_0 (f152 f153 ?v0))) (= (f94 (f97 f99 (f151 ?v_0 ?v1)) (f151 ?v_0 ?v2)) (f151 ?v_0 (f4 (f6 f7 ?v1) ?v2))))))
(assert (forall ((?v0 S25) (?v1 S2) (?v2 S2)) (let ((?v_0 (f149 f150 ?v0))) (= (f46 (f73 f75 (f148 ?v_0 ?v1)) (f148 ?v_0 ?v2)) (f148 ?v_0 (f4 (f6 f7 ?v1) ?v2))))))
(assert (forall ((?v0 S16) (?v1 S2) (?v2 S2)) (let ((?v_0 (f134 f135 ?v0))) (= (f28 (f81 f83 (f133 ?v_0 ?v1)) (f133 ?v_0 ?v2)) (f133 ?v_0 (f4 (f6 f7 ?v1) ?v2))))))
(assert (forall ((?v0 S15) (?v1 S2) (?v2 S2)) (let ((?v_0 (f137 f138 ?v0))) (= (f58 (f86 f88 (f136 ?v_0 ?v1)) (f136 ?v_0 ?v2)) (f136 ?v_0 (f4 (f6 f7 ?v1) ?v2))))))
(assert (forall ((?v0 S4) (?v1 S2) (?v2 S2)) (let ((?v_0 (f131 f132 ?v0))) (= (f12 (f91 f93 (f130 ?v_0 ?v1)) (f130 ?v_0 ?v2)) (f130 ?v_0 (f4 (f6 f7 ?v1) ?v2))))))
(check-sat)
(exit)
